50
135.21 19.61
185.93 16.21
22.95 12.42
21.23 157.02
197.02 160.71
43.37 148.94
24.5 34.56
48.29 31.27
43.55 116.32
129.09 154.87
186.76 85.69
22.23 39.73
136.02 172.74
155.18 192.44
93.68 48.04
122.35 131.73
79.04 178.48
55.2 70.55
71.46 151.47
61.39 198.34
129.31 187.41
111.89 152.55
96.08 48.8
66.43 157.59
152.36 41.61
52.86 129.06
76.79 54.96
168.1 199.26
52.45 110.73
99.69 51.28
45.5 19.41
51.75 160.01
112.4 32.69
26.23 109.95
88.77 21.12
128.39 180.8
159.9 136.94
98.81 88.16
59.6 165.29
35.24 83.63
25.79 197.2
181.23 144.22
130.64 172.07
199.6 103.57
47.66 45.5
183.42 23.72
14.51 91.07
130.43 125.55
196.86 190.39
80.29 106.48
